c file = i-6-12-AMAI-04.cnf ... nVar=6, nClause=12, nMaxima=4
c There are four solutions that satisfy this formula:
c (001001, 001010, 010001, 010010)
c see the results in 2005-AMAI-Brglez.pdf
c
c tcl command line and solution
c =============================
c (xWork) 716 % B.cover.f.exh ../xBenchm/coverBinate/tiny/i-6-12-AMAI-04.cnf
c # Output from B.cover.f.exh: 
c # Exhaustive enumeration of instance ../xBenchm/coverBinate/tiny/i-6-12-AMAI-04.cnf 
c # .. completed on Thu Oct 16 14:00:33 EDT 2014 
c # table below can be read in R 
c rank	cntCoord	cntFeasible	probOfFeasible
c 0	1	0 	   0
c 1	6	0 	   0
c 2	15	4 	0.2667
c 3	20	0 	   0
c 4	15	0 	   0
c 5	6	0 	   0
c 6	1	0 	   0
c # there are 4 valueBest solutions
c # 001001;2
c # 001010;2
c # 010001;2
c # 010010;2
c
p cnf 6 12
-1 -2 0
-1 -3 0
-1 -4 0
-1 -5 0
-1 -6 0
-2 -3 0
-2 -4 0
-3 -4 0
-5 -6 0
1 2 3 0
4 5 6 0
-1 2 -3 4 0
